(declare-fun Constructed_Argument_t () String)
(declare-fun CreateAsClass () Bool)
(declare-fun Constructed_Argument () String)
(declare-fun ExpandObjSwitcher () Real)
(declare-fun CreateAsClass_2 () Bool)
(assert (= Constructed_Argument_t "string"))
(assert (not CreateAsClass))
(assert (not (= Constructed_Argument "")))
(assert (not (= ExpandObjSwitcher 0.0)))
(assert (not (= ExpandObjSwitcher 1.0)))
(assert (= ExpandObjSwitcher 2.0))
(assert CreateAsClass_2)
(check-sat)
